solution status: optimal solution found
objective value:                     133038.266622446
d11(0,0)                                            1 	(obj:0)
d11(1,1)                                            1 	(obj:0)
d11(1,2)                                            1 	(obj:0)
d11(2,5)                                            1 	(obj:0)
d11(3,7)                                            1 	(obj:0)
d11(3,9)                                            1 	(obj:0)
d11(3,13)                                           1 	(obj:0)
d12(2,4)                                            1 	(obj:0)
d12(2,6)                                            1 	(obj:0)
d12(3,8)                                            1 	(obj:0)
d12(3,10)                                           1 	(obj:0)
d12(3,12)                                           1 	(obj:0)
d12(3,14)                                           1 	(obj:0)
d21(2,3)                                            1 	(obj:0)
d21(3,7)                                            1 	(obj:0)
d21(3,8)                                            1 	(obj:0)
d21(3,9)                                            1 	(obj:0)
WB(2)                                3315.65537776224 	(obj:0)
y2(2,4)                              1385.48851144895 	(obj:0)
y2(2,6)                              1385.48851144895 	(obj:0)
y2(3,8)                              1385.48851144895 	(obj:0)
y2(3,10)                             1385.48851144895 	(obj:0)
y2(3,12)                             1385.48851144895 	(obj:0)
y2(3,14)                             1385.48851144898 	(obj:0)
STE(1,1)                             8736.75010111072 	(obj:0)
STE(0,0)                                        15750 	(obj:0)
STE(1,2)                             10394.9999999995 	(obj:0)
STE(2,3)                             7476.75010111072 	(obj:0)
STE(2,4)                             8792.96418698722 	(obj:0)
STE(2,5)                             9134.99999999954 	(obj:0)
STE(2,6)                              10451.214085876 	(obj:0)
STE(3,7)                             6216.75010111066 	(obj:0)
STE(3,8)                             7532.96418698722 	(obj:0)
STE(3,9)                             7532.96418698723 	(obj:0)
STE(3,10)                            8849.17827286373 	(obj:0)
STE(3,11)                            7874.99999999954 	(obj:0)
STE(3,12)                            9191.21408587604 	(obj:0)
STE(3,13)                            9191.21408587604 	(obj:0)
STE(3,14)                            10507.4281717526 	(obj:0)
AVE(2)                               3315.65537776224 	(obj:0)
WB(3)                                3315.65799770399 	(obj:0)
y1(1,1)                              5177.92490900035 	(obj:0)
y1(1,2)                              3685.50000000042 	(obj:0)
AVE(3)                               3315.65799770399 	(obj:0)
WG(1)                                3248.33172520918 	(obj:10)
BG(1)                                 4708.6750594851 	(obj:10)
BG(2)                                2673.40993877551 	(obj:10)
BG(3)                                2673.40993877527 	(obj:10)
AVE(1)                               3248.33172520918 	(obj:0)
